unsat
(:max-memory         18.53
 :memory             18.43
 :nlsat-arith-var    3
 :nlsat-atoms        13
 :nlsat-bool-var     1
 :nlsat-clauses      12
 :nlsat-conflicts    2
 :nlsat-propagations 7
 :nlsat-stages       2
 :num-allocs         78842
 :rlimit-count       6131
 :time               0.01
 :total-time         0.02)
